
Gurobi 9.1.1 (linux64) logging started Wed Dec  1 09:53:31 2021

Changed value of parameter LogFile to /home/aniket/python_scripts/Plasmids-Optimization/exp/2021-06-14__iterative_MILP_edge_novelty/output/sample_68/1.1.1/nplasmids_1/MILP/m.log
   Prev:   Default: 
Changed value of parameter TimeLimit to 240.0
   Prev: inf  Min: 0.0  Max: inf  Default: inf
Changed value of parameter MIPGap to 0.05
   Prev: 0.0001  Min: 0.0  Max: inf  Default: 0.0001
Gurobi Optimizer version 9.1.1 build v9.1.1rc0 (linux64)
Thread count: 2 physical cores, 4 logical processors, using up to 4 threads
Optimize a model with 21102 rows, 7102 columns and 56342 nonzeros
Model fingerprint: 0xd9a0a51a
Variable types: 1876 continuous, 5226 integer (4851 binary)
Coefficient statistics:
  Matrix range     [1e-02, 7e+05]
  Objective range  [8e-04, 1e+00]
  Bounds range     [1e+00, 1e+00]
  RHS range        [8e-01, 2e+05]
Presolve removed 18135 rows and 3607 columns
Presolve time: 0.11s
Presolved: 2967 rows, 3495 columns, 17449 nonzeros
Variable types: 715 continuous, 2780 integer (2780 binary)
Found heuristic solution: objective -0.1841276

Root relaxation: objective -2.153890e+01, 1966 iterations, 0.06 seconds

    Nodes    |    Current Node    |     Objective Bounds      |     Work
 Expl Unexpl |  Obj  Depth IntInf | Incumbent    BestBd   Gap | It/Node Time

     0     0  -21.53890    0  105   -0.18413  -21.53890      -     -    0s
H    0     0                      -1.0000000  -21.53890  2054%     -    0s
     0     0  -21.53890    0  114   -1.00000  -21.53890  2054%     -    0s
H    0     0                     -18.7039892  -21.53890  15.2%     -    0s
     0     0  -21.11869    0  111  -18.70399  -21.11869  12.9%     -    0s
     0     0  -21.11869    0  110  -18.70399  -21.11869  12.9%     -    1s
     0     0  -21.11869    0  107  -18.70399  -21.11869  12.9%     -    1s
     0     0  -21.11869    0  116  -18.70399  -21.11869  12.9%     -    1s
     0     0  -21.11869    0  103  -18.70399  -21.11869  12.9%     -    1s
     0     0  -21.11869    0  109  -18.70399  -21.11869  12.9%     -    1s
     0     0  -21.11869    0  111  -18.70399  -21.11869  12.9%     -    1s
     0     0  -21.11869    0  107  -18.70399  -21.11869  12.9%     -    1s
     0     0  -21.11869    0  107  -18.70399  -21.11869  12.9%     -    1s
     0     2  -21.11869    0  105  -18.70399  -21.11869  12.9%     -    1s

Cutting planes:
  Gomory: 6
  Clique: 1
  MIR: 1
  Flow cover: 47
  RLT: 64

Explored 9 nodes (13626 simplex iterations) in 1.91 seconds
Thread count was 4 (of 4 available processors)

Solution count 3: -18.704 -1 -0.184128 

Optimal solution found (tolerance 5.00e-02)
Best objective -1.870398916455e+01, best bound -1.949148605706e+01, gap 4.2103%
Gurobi Optimizer version 9.1.1 build v9.1.1rc0 (linux64)
Thread count: 2 physical cores, 4 logical processors, using up to 4 threads
Optimize a model with 21103 rows, 7102 columns and 56353 nonzeros
Model fingerprint: 0xc7392feb
Variable types: 1876 continuous, 5226 integer (4851 binary)
Coefficient statistics:
  Matrix range     [1e-02, 7e+05]
  Objective range  [8e-04, 1e+00]
  Bounds range     [1e+00, 1e+00]
  RHS range        [8e-01, 2e+05]

MIP start from previous solve did not produce a new incumbent solution
MIP start from previous solve violates constraint circular by 1.000000000

Presolve removed 18135 rows and 3607 columns
Presolve time: 0.11s
Presolved: 2968 rows, 3495 columns, 17480 nonzeros
Variable types: 715 continuous, 2780 integer (2780 binary)
Found heuristic solution: objective -0.1841276

Root relaxation: objective -2.153890e+01, 1940 iterations, 0.07 seconds

    Nodes    |    Current Node    |     Objective Bounds      |     Work
 Expl Unexpl |  Obj  Depth IntInf | Incumbent    BestBd   Gap | It/Node Time

     0     0  -21.53890    0  109   -0.18413  -21.53890      -     -    0s
H    0     0                      -1.0000000  -21.53890  2054%     -    0s
     0     0  -21.53890    0  107   -1.00000  -21.53890  2054%     -    0s
H    0     0                     -18.7009901  -21.53890  15.2%     -    0s
     0     0  -21.11869    0  104  -18.70099  -21.11869  12.9%     -    0s
     0     0  -21.11869    0  105  -18.70099  -21.11869  12.9%     -    1s
     0     0  -21.11869    0   99  -18.70099  -21.11869  12.9%     -    1s
     0     0  -21.11869    0  104  -18.70099  -21.11869  12.9%     -    1s
     0     0  -21.11869    0  105  -18.70099  -21.11869  12.9%     -    1s
     0     0  -21.11869    0  110  -18.70099  -21.11869  12.9%     -    1s
     0     0  -21.11869    0  101  -18.70099  -21.11869  12.9%     -    1s
     0     0  -21.11869    0  103  -18.70099  -21.11869  12.9%     -    1s
     0     0  -21.11869    0  107  -18.70099  -21.11869  12.9%     -    1s
     0     0  -21.11869    0  114  -18.70099  -21.11869  12.9%     -    1s
     0     0  -21.11869    0  113  -18.70099  -21.11869  12.9%     -    1s
     0     2  -21.11869    0  109  -18.70099  -21.11869  12.9%     -    1s
H   27    28                     -18.7009924  -19.67316  5.20%   162    2s
*   49    39              22     -18.7039892  -19.67316  5.18%   109    2s

Cutting planes:
  Gomory: 13
  MIR: 1
  Flow cover: 66
  Zero half: 1
  RLT: 66

Explored 120 nodes (19337 simplex iterations) in 2.38 seconds
Thread count was 4 (of 4 available processors)

Solution count 5: -18.704 -18.701 -18.701 ... -0.184128

Optimal solution found (tolerance 5.00e-02)
Best objective -1.870398916455e+01, best bound -1.929233844770e+01, gap 3.1456%
Gurobi Optimizer version 9.1.1 build v9.1.1rc0 (linux64)
Thread count: 2 physical cores, 4 logical processors, using up to 4 threads
Optimize a model with 21104 rows, 7102 columns and 56362 nonzeros
Model fingerprint: 0x65678163
Variable types: 1876 continuous, 5226 integer (4851 binary)
Coefficient statistics:
  Matrix range     [1e-02, 7e+05]
  Objective range  [8e-04, 1e+00]
  Bounds range     [1e+00, 1e+00]
  RHS range        [8e-01, 2e+05]

MIP start from previous solve did not produce a new incumbent solution
MIP start from previous solve violates constraint circular by 1.000000000

Presolve removed 18135 rows and 3607 columns
Presolve time: 0.12s
Presolved: 2969 rows, 3495 columns, 17490 nonzeros
Variable types: 715 continuous, 2780 integer (2780 binary)
Found heuristic solution: objective -0.1841276

Root relaxation: objective -2.153890e+01, 1805 iterations, 0.07 seconds

    Nodes    |    Current Node    |     Objective Bounds      |     Work
 Expl Unexpl |  Obj  Depth IntInf | Incumbent    BestBd   Gap | It/Node Time

     0     0  -21.53890    0  107   -0.18413  -21.53890      -     -    0s
H    0     0                      -1.0000000  -21.53890  2054%     -    0s
     0     0  -21.53890    0  110   -1.00000  -21.53890  2054%     -    0s
H    0     0                     -18.7039892  -21.53890  15.2%     -    0s
     0     0  -21.11869    0  106  -18.70399  -21.11869  12.9%     -    0s
     0     0  -21.11869    0  104  -18.70399  -21.11869  12.9%     -    0s
     0     0  -21.11869    0   99  -18.70399  -21.11869  12.9%     -    1s
     0     0  -21.11869    0  107  -18.70399  -21.11869  12.9%     -    1s
     0     0  -21.11869    0  108  -18.70399  -21.11869  12.9%     -    1s
     0     0  -21.11869    0  112  -18.70399  -21.11869  12.9%     -    1s
H    0     0                     -18.7039919  -21.11869  12.9%     -    1s
     0     0  -21.11869    0  108  -18.70399  -21.11869  12.9%     -    1s
     0     0  -21.11869    0  118  -18.70399  -21.11869  12.9%     -    1s
     0     0  -21.11869    0  120  -18.70399  -21.11869  12.9%     -    1s
     0     0  -21.11869    0  112  -18.70399  -21.11869  12.9%     -    1s
     0     0  -21.11869    0  104  -18.70399  -21.11869  12.9%     -    1s
     0     2  -21.11869    0  104  -18.70399  -21.11869  12.9%     -    1s

Cutting planes:
  Gomory: 9
  MIR: 3
  Flow cover: 65
  RLT: 79

Explored 74 nodes (18683 simplex iterations) in 2.30 seconds
Thread count was 4 (of 4 available processors)

Solution count 4: -18.704 -18.704 -1 -0.184128 

Optimal solution found (tolerance 5.00e-02)
Best objective -1.870399185397e+01, best bound -1.960920461682e+01, gap 4.8397%
Gurobi Optimizer version 9.1.1 build v9.1.1rc0 (linux64)
Thread count: 2 physical cores, 4 logical processors, using up to 4 threads
Optimize a model with 21105 rows, 7102 columns and 56371 nonzeros
Model fingerprint: 0xb5fc2657
Variable types: 1876 continuous, 5226 integer (4851 binary)
Coefficient statistics:
  Matrix range     [1e-02, 7e+05]
  Objective range  [8e-04, 1e+00]
  Bounds range     [1e+00, 1e+00]
  RHS range        [8e-01, 2e+05]

MIP start from previous solve did not produce a new incumbent solution
MIP start from previous solve violates constraint circular by 1.000000000

Presolve removed 18135 rows and 3607 columns
Presolve time: 0.11s
Presolved: 2970 rows, 3495 columns, 17519 nonzeros
Variable types: 715 continuous, 2780 integer (2780 binary)
Found heuristic solution: objective -0.1841276

Root relaxation: objective -2.153890e+01, 1908 iterations, 0.06 seconds

    Nodes    |    Current Node    |     Objective Bounds      |     Work
 Expl Unexpl |  Obj  Depth IntInf | Incumbent    BestBd   Gap | It/Node Time

     0     0  -21.53890    0  102   -0.18413  -21.53890      -     -    0s
H    0     0                      -1.0000000  -21.53890  2054%     -    0s
     0     0  -21.53890    0  114   -1.00000  -21.53890  2054%     -    0s
H    0     0                     -18.7039892  -21.53890  15.2%     -    0s
     0     0  -21.11869    0  103  -18.70399  -21.11869  12.9%     -    0s
     0     0  -21.11869    0  109  -18.70399  -21.11869  12.9%     -    1s
     0     0  -21.11869    0  102  -18.70399  -21.11869  12.9%     -    1s
     0     0  -21.11869    0  107  -18.70399  -21.11869  12.9%     -    1s
     0     0  -21.11869    0   99  -18.70399  -21.11869  12.9%     -    1s
     0     0  -21.11869    0  104  -18.70399  -21.11869  12.9%     -    1s
     0     0  -21.11869    0  111  -18.70399  -21.11869  12.9%     -    1s
     0     0  -21.11869    0  107  -18.70399  -21.11869  12.9%     -    1s
     0     0  -21.11869    0  103  -18.70399  -21.11869  12.9%     -    1s
     0     0  -21.11869    0  110  -18.70399  -21.11869  12.9%     -    1s
     0     0  -21.11869    0  103  -18.70399  -21.11869  12.9%     -    1s
     0     2  -21.11869    0  103  -18.70399  -21.11869  12.9%     -    1s
H   29    27                     -18.7039900  -20.88995  11.7%   132    2s

Cutting planes:
  Gomory: 9
  Clique: 1
  MIR: 1
  Flow cover: 52
  RLT: 76

Explored 205 nodes (22991 simplex iterations) in 2.71 seconds
Thread count was 4 (of 4 available processors)

Solution count 4: -18.704 -18.704 -1 -0.184128 

Optimal solution found (tolerance 5.00e-02)
Best objective -1.870398997494e+01, best bound -1.960077064744e+01, gap 4.7946%

Gurobi 9.1.1 (linux64) logging started Wed Dec  1 09:53:40 2021

Changed value of parameter LogFile to /home/aniket/python_scripts/Plasmids-Optimization/exp/2021-06-14__iterative_MILP_edge_novelty/output/sample_68/1.1.1/nplasmids_1/MILP/m.log
   Prev:   Default: 
Changed value of parameter TimeLimit to 240.0
   Prev: inf  Min: 0.0  Max: inf  Default: inf
Changed value of parameter MIPGap to 0.05
   Prev: 0.0001  Min: 0.0  Max: inf  Default: 0.0001
Gurobi Optimizer version 9.1.1 build v9.1.1rc0 (linux64)
Thread count: 2 physical cores, 4 logical processors, using up to 4 threads
Optimize a model with 19809 rows, 6664 columns and 52644 nonzeros
Model fingerprint: 0x946a7a97
Variable types: 1771 continuous, 4893 integer (4539 binary)
Coefficient statistics:
  Matrix range     [1e-02, 7e+05]
  Objective range  [8e-04, 1e+00]
  Bounds range     [1e+00, 1e+00]
  RHS range        [8e-01, 2e+05]
Presolve removed 17020 rows and 3406 columns
Presolve time: 0.10s
Presolved: 2789 rows, 3258 columns, 16249 nonzeros
Variable types: 673 continuous, 2585 integer (2585 binary)
Found heuristic solution: objective -0.1841276

Root relaxation: objective -2.124139e+01, 2182 iterations, 0.06 seconds

    Nodes    |    Current Node    |     Objective Bounds      |     Work
 Expl Unexpl |  Obj  Depth IntInf | Incumbent    BestBd   Gap | It/Node Time

     0     0  -21.24139    0   43   -0.18413  -21.24139      -     -    0s
H    0     0                      -4.8265397  -21.24139   340%     -    0s
     0     0  -20.68054    0   52   -4.82654  -20.68054   328%     -    0s
H    0     0                     -18.7039892  -20.68054  10.6%     -    0s
     0     0  -20.68054    0   52  -18.70399  -20.68054  10.6%     -    0s
     0     0  -20.56181    0   51  -18.70399  -20.56181  9.93%     -    0s
H    0     0                     -18.7039925  -20.56181  9.93%     -    0s
     0     0  -20.53298    0   46  -18.70399  -20.53298  9.78%     -    0s
     0     0  -20.50211    0   45  -18.70399  -20.50211  9.61%     -    1s
     0     0  -20.49847    0   50  -18.70399  -20.49847  9.59%     -    1s
     0     0  -20.49362    0   49  -18.70399  -20.49362  9.57%     -    1s
     0     0  -20.48603    0   47  -18.70399  -20.48603  9.53%     -    1s
     0     0  -20.41038    0   51  -18.70399  -20.41038  9.12%     -    1s
     0     0  -20.40808    0   53  -18.70399  -20.40808  9.11%     -    1s
     0     0  -20.40365    0   52  -18.70399  -20.40365  9.09%     -    1s
     0     0  -20.40365    0   51  -18.70399  -20.40365  9.09%     -    1s
     0     0  -20.39791    0   53  -18.70399  -20.39791  9.06%     -    1s
     0     0  -20.39669    0   53  -18.70399  -20.39669  9.05%     -    1s
     0     0  -20.39636    0   54  -18.70399  -20.39636  9.05%     -    1s
     0     0  -20.39630    0   56  -18.70399  -20.39630  9.05%     -    1s
     0     0  -20.39210    0   53  -18.70399  -20.39210  9.03%     -    1s
     0     0  -20.39210    0   45  -18.70399  -20.39210  9.03%     -    1s
     0     0  -20.39210    0   56  -18.70399  -20.39210  9.03%     -    1s
     0     0  -20.39210    0   53  -18.70399  -20.39210  9.03%     -    1s
     0     0  -20.39095    0   55  -18.70399  -20.39095  9.02%     -    1s
     0     0  -20.38966    0   55  -18.70399  -20.38966  9.01%     -    1s
     0     0  -20.38928    0   54  -18.70399  -20.38928  9.01%     -    1s
     0     0  -20.38928    0   54  -18.70399  -20.38928  9.01%     -    1s
     0     0  -20.38923    0   55  -18.70399  -20.38923  9.01%     -    1s
     0     0  -20.38923    0   52  -18.70399  -20.38923  9.01%     -    1s
     0     0  -20.38916    0   54  -18.70399  -20.38916  9.01%     -    1s
     0     0  -20.13243    0   66  -18.70399  -20.13243  7.64%     -    1s
     0     0  -20.07699    0   77  -18.70399  -20.07699  7.34%     -    1s
     0     0  -20.07292    0   77  -18.70399  -20.07292  7.32%     -    1s
     0     0  -20.07191    0   75  -18.70399  -20.07191  7.31%     -    1s
     0     0  -20.07190    0   76  -18.70399  -20.07190  7.31%     -    1s
     0     0  -20.05868    0   60  -18.70399  -20.05868  7.24%     -    1s
     0     0  -20.05468    0   74  -18.70399  -20.05468  7.22%     -    1s
     0     0  -20.05446    0   77  -18.70399  -20.05446  7.22%     -    1s
     0     0  -20.05370    0   60  -18.70399  -20.05370  7.22%     -    1s
     0     0  -20.05368    0   81  -18.70399  -20.05368  7.22%     -    1s
     0     0  -20.05368    0   81  -18.70399  -20.05368  7.22%     -    1s
     0     0  -20.05368    0   81  -18.70399  -20.05368  7.22%     -    1s
     0     0  -20.05368    0   81  -18.70399  -20.05368  7.22%     -    2s
     0     0  -20.05368    0   74  -18.70399  -20.05368  7.22%     -    2s
     0     2  -20.05368    0   74  -18.70399  -20.05368  7.22%     -    2s

Cutting planes:
  Gomory: 8
  Cover: 3
  Clique: 2
  MIR: 2
  Flow cover: 39
  RLT: 56

Explored 7 nodes (9381 simplex iterations) in 2.28 seconds
Thread count was 4 (of 4 available processors)

Solution count 4: -18.704 -18.704 -4.82654 -0.184128 

Optimal solution found (tolerance 5.00e-02)
Best objective -1.870399250095e+01, best bound -1.900763937065e+01, gap 1.6234%

Gurobi 9.1.1 (linux64) logging started Wed Dec  1 09:53:43 2021

Changed value of parameter LogFile to /home/aniket/python_scripts/Plasmids-Optimization/exp/2021-06-14__iterative_MILP_edge_novelty/output/sample_68/1.1.1/nplasmids_1/MILP/m.log
   Prev:   Default: 
Changed value of parameter TimeLimit to 240.0
   Prev: inf  Min: 0.0  Max: inf  Default: inf
Changed value of parameter MIPGap to 0.05
   Prev: 0.0001  Min: 0.0  Max: inf  Default: 0.0001
Gurobi Optimizer version 9.1.1 build v9.1.1rc0 (linux64)
Thread count: 2 physical cores, 4 logical processors, using up to 4 threads
Optimize a model with 18780 rows, 6314 columns and 50090 nonzeros
Model fingerprint: 0x4f657f85
Variable types: 1666 continuous, 4648 integer (4315 binary)
Coefficient statistics:
  Matrix range     [1e-02, 7e+05]
  Objective range  [8e-04, 1e+00]
  Bounds range     [1e+00, 1e+00]
  RHS range        [8e-01, 2e+05]
Presolve removed 16179 rows and 3205 columns
Presolve time: 0.10s
Presolved: 2601 rows, 3109 columns, 15392 nonzeros
Variable types: 631 continuous, 2478 integer (2478 binary)
Found heuristic solution: objective -0.1841276

Root relaxation: objective -2.796126e+00, 2068 iterations, 0.06 seconds

    Nodes    |    Current Node    |     Objective Bounds      |     Work
 Expl Unexpl |  Obj  Depth IntInf | Incumbent    BestBd   Gap | It/Node Time

     0     0   -2.79613    0   15   -0.18413   -2.79613  1419%     -    0s
H    0     0                      -0.9366131   -2.79613   199%     -    0s
     0     0   -2.68131    0   49   -0.93661   -2.68131   186%     -    0s
H    0     0                      -2.4999692   -2.68131  7.25%     -    0s
     0     0   -2.60011    0   19   -2.49997   -2.60011  4.01%     -    0s

Cutting planes:
  Gomory: 19
  MIR: 2
  Flow cover: 29
  RLT: 26
  BQP: 1

Explored 1 nodes (3461 simplex iterations) in 0.39 seconds
Thread count was 4 (of 4 available processors)

Solution count 3: -2.49997 -0.936613 -0.184128 

Optimal solution found (tolerance 5.00e-02)
Best objective -2.499969164877e+00, best bound -2.600111071234e+00, gap 4.0057%

Gurobi 9.1.1 (linux64) logging started Wed Dec  1 09:53:44 2021

Changed value of parameter LogFile to /home/aniket/python_scripts/Plasmids-Optimization/exp/2021-06-14__iterative_MILP_edge_novelty/output/sample_68/1.1.1/nplasmids_1/MILP/m.log
   Prev:   Default: 
Changed value of parameter TimeLimit to 240.0
   Prev: inf  Min: 0.0  Max: inf  Default: inf
Changed value of parameter MIPGap to 0.05
   Prev: 0.0001  Min: 0.0  Max: inf  Default: 0.0001
Gurobi Optimizer version 9.1.1 build v9.1.1rc0 (linux64)
Thread count: 2 physical cores, 4 logical processors, using up to 4 threads
Optimize a model with 18521 rows, 6226 columns and 49422 nonzeros
Model fingerprint: 0x63aa8678
Variable types: 1641 continuous, 4585 integer (4257 binary)
Coefficient statistics:
  Matrix range     [1e-02, 7e+05]
  Objective range  [8e-04, 1e+00]
  Bounds range     [1e+00, 1e+00]
  RHS range        [8e-01, 2e+05]
Presolve removed 15965 rows and 3154 columns
Presolve time: 0.10s
Presolved: 2556 rows, 3072 columns, 15146 nonzeros
Variable types: 621 continuous, 2451 integer (2451 binary)
Found heuristic solution: objective -0.1841276

Root relaxation: objective -1.790207e+00, 1776 iterations, 0.06 seconds

    Nodes    |    Current Node    |     Objective Bounds      |     Work
 Expl Unexpl |  Obj  Depth IntInf | Incumbent    BestBd   Gap | It/Node Time

     0     0   -1.79021    0    4   -0.18413   -1.79021   872%     -    0s
H    0     0                      -0.9366131   -1.79021  91.1%     -    0s
     0     0   -1.79010    0    4   -0.93661   -1.79010  91.1%     -    0s
H    0     0                      -1.7824615   -1.79010  0.43%     -    0s

Cutting planes:
  Flow cover: 1

Explored 1 nodes (1786 simplex iterations) in 0.26 seconds
Thread count was 4 (of 4 available processors)

Solution count 3: -1.78246 -0.936613 -0.184128 

Optimal solution found (tolerance 5.00e-02)
Best objective -1.782461477865e+00, best bound -1.790095144781e+00, gap 0.4283%

Gurobi 9.1.1 (linux64) logging started Wed Dec  1 09:53:45 2021

Changed value of parameter LogFile to /home/aniket/python_scripts/Plasmids-Optimization/exp/2021-06-14__iterative_MILP_edge_novelty/output/sample_68/1.1.1/nplasmids_1/MILP/m.log
   Prev:   Default: 
Changed value of parameter TimeLimit to 240.0
   Prev: inf  Min: 0.0  Max: inf  Default: inf
Changed value of parameter MIPGap to 0.05
   Prev: 0.0001  Min: 0.0  Max: inf  Default: 0.0001
Gurobi Optimizer version 9.1.1 build v9.1.1rc0 (linux64)
Thread count: 2 physical cores, 4 logical processors, using up to 4 threads
Optimize a model with 18421 rows, 6192 columns and 49170 nonzeros
Model fingerprint: 0x99c352d0
Variable types: 1631 continuous, 4561 integer (4235 binary)
Coefficient statistics:
  Matrix range     [1e-02, 7e+05]
  Objective range  [8e-04, 1e+00]
  Bounds range     [1e+00, 1e+00]
  RHS range        [8e-01, 2e+05]
Presolve removed 15881 rows and 3130 columns
Presolve time: 0.09s
Presolved: 2540 rows, 3062 columns, 15087 nonzeros
Variable types: 617 continuous, 2445 integer (2445 binary)
Found heuristic solution: objective -0.1841276

Root relaxation: objective -1.118559e+00, 2037 iterations, 0.05 seconds

    Nodes    |    Current Node    |     Objective Bounds      |     Work
 Expl Unexpl |  Obj  Depth IntInf | Incumbent    BestBd   Gap | It/Node Time

     0     0   -1.11856    0    4   -0.18413   -1.11856   507%     -    0s
H    0     0                      -0.9366131   -1.11856  19.4%     -    0s
*    0     0               0      -1.1064272   -1.10643  0.00%     -    0s

Cutting planes:
  Gomory: 1
  MIR: 1
  Flow cover: 3
  RLT: 2
  BQP: 1

Explored 1 nodes (2043 simplex iterations) in 0.21 seconds
Thread count was 4 (of 4 available processors)

Solution count 3: -1.10643 -0.936613 -0.184128 
No other solutions better than -1.10643

Optimal solution found (tolerance 5.00e-02)
Best objective -1.106427189404e+00, best bound -1.106427189404e+00, gap 0.0000%

Gurobi 9.1.1 (linux64) logging started Wed Dec  1 09:53:45 2021

Changed value of parameter LogFile to /home/aniket/python_scripts/Plasmids-Optimization/exp/2021-06-14__iterative_MILP_edge_novelty/output/sample_68/1.1.1/nplasmids_1/MILP/m.log
   Prev:   Default: 
Changed value of parameter TimeLimit to 240.0
   Prev: inf  Min: 0.0  Max: inf  Default: inf
Changed value of parameter MIPGap to 0.05
   Prev: 0.0001  Min: 0.0  Max: inf  Default: 0.0001
Gurobi Optimizer version 9.1.1 build v9.1.1rc0 (linux64)
Thread count: 2 physical cores, 4 logical processors, using up to 4 threads
Optimize a model with 18321 rows, 6158 columns and 48918 nonzeros
Model fingerprint: 0x69addf99
Variable types: 1621 continuous, 4537 integer (4213 binary)
Coefficient statistics:
  Matrix range     [1e-02, 7e+05]
  Objective range  [8e-04, 1e+00]
  Bounds range     [1e+00, 1e+00]
  RHS range        [8e-01, 2e+05]
Presolve removed 15797 rows and 3106 columns
Presolve time: 0.09s
Presolved: 2524 rows, 3052 columns, 15026 nonzeros
Variable types: 613 continuous, 2439 integer (2439 binary)
Found heuristic solution: objective -0.8502976

Root relaxation: objective -1.000000e+00, 1659 iterations, 0.06 seconds

    Nodes    |    Current Node    |     Objective Bounds      |     Work
 Expl Unexpl |  Obj  Depth IntInf | Incumbent    BestBd   Gap | It/Node Time

*    0     0               0      -1.0000000   -1.00000  0.00%     -    0s

Explored 0 nodes (1659 simplex iterations) in 0.18 seconds
Thread count was 4 (of 4 available processors)

Solution count 2: -1 -0.850298 

Optimal solution found (tolerance 5.00e-02)
Best objective -1.000000000000e+00, best bound -1.000000000000e+00, gap 0.0000%

Gurobi 9.1.1 (linux64) logging started Wed Dec  1 09:53:46 2021

Changed value of parameter LogFile to /home/aniket/python_scripts/Plasmids-Optimization/exp/2021-06-14__iterative_MILP_edge_novelty/output/sample_68/1.1.1/nplasmids_1/MILP/m.log
   Prev:   Default: 
Changed value of parameter TimeLimit to 240.0
   Prev: inf  Min: 0.0  Max: inf  Default: inf
Changed value of parameter MIPGap to 0.05
   Prev: 0.0001  Min: 0.0  Max: inf  Default: 0.0001
Gurobi Optimizer version 9.1.1 build v9.1.1rc0 (linux64)
Thread count: 2 physical cores, 4 logical processors, using up to 4 threads
Optimize a model with 18286 rows, 6146 columns and 48857 nonzeros
Model fingerprint: 0x3490ac06
Variable types: 1616 continuous, 4530 integer (4207 binary)
Coefficient statistics:
  Matrix range     [1e-02, 7e+05]
  Objective range  [8e-04, 1e+00]
  Bounds range     [1e+00, 1e+00]
  RHS range        [8e-01, 2e+05]
Presolve removed 15768 rows and 3097 columns
Presolve time: 0.09s
Presolved: 2518 rows, 3049 columns, 15006 nonzeros
Variable types: 611 continuous, 2438 integer (2438 binary)
Found heuristic solution: objective -0.8502976

Root relaxation: objective -9.233155e-01, 1516 iterations, 0.06 seconds

    Nodes    |    Current Node    |     Objective Bounds      |     Work
 Expl Unexpl |  Obj  Depth IntInf | Incumbent    BestBd   Gap | It/Node Time

*    0     0               0      -0.9233155   -0.92332  0.00%     -    0s

Explored 0 nodes (1516 simplex iterations) in 0.18 seconds
Thread count was 4 (of 4 available processors)

Solution count 2: -0.923315 -0.850298 

Optimal solution found (tolerance 5.00e-02)
Best objective -9.233154778686e-01, best bound -9.233154778686e-01, gap 0.0000%

Gurobi 9.1.1 (linux64) logging started Wed Dec  1 09:53:46 2021

Changed value of parameter LogFile to /home/aniket/python_scripts/Plasmids-Optimization/exp/2021-06-14__iterative_MILP_edge_novelty/output/sample_68/1.1.1/nplasmids_1/MILP/m.log
   Prev:   Default: 
Changed value of parameter TimeLimit to 240.0
   Prev: inf  Min: 0.0  Max: inf  Default: inf
Changed value of parameter MIPGap to 0.05
   Prev: 0.0001  Min: 0.0  Max: inf  Default: 0.0001
Gurobi Optimizer version 9.1.1 build v9.1.1rc0 (linux64)
Thread count: 2 physical cores, 4 logical processors, using up to 4 threads
Optimize a model with 18251 rows, 6134 columns and 48796 nonzeros
Model fingerprint: 0x6f0f0ed5
Variable types: 1611 continuous, 4523 integer (4201 binary)
Coefficient statistics:
  Matrix range     [1e-02, 7e+05]
  Objective range  [8e-04, 1e+00]
  Bounds range     [1e+00, 1e+00]
  RHS range        [8e-01, 2e+05]
Presolve removed 15739 rows and 3088 columns
Presolve time: 0.09s
Presolved: 2512 rows, 3046 columns, 14986 nonzeros
Variable types: 609 continuous, 2437 integer (2437 binary)
Found heuristic solution: objective -0.8502976

Root relaxation: cutoff, 1199 iterations, 0.05 seconds

    Nodes    |    Current Node    |     Objective Bounds      |     Work
 Expl Unexpl |  Obj  Depth IntInf | Incumbent    BestBd   Gap | It/Node Time

     0     0     cutoff    0        -0.85030   -0.85030  0.00%     -    0s

Explored 0 nodes (1199 simplex iterations) in 0.17 seconds
Thread count was 4 (of 4 available processors)

Solution count 1: -0.850298 

Optimal solution found (tolerance 5.00e-02)
Best objective -8.502975909306e-01, best bound -8.502975909306e-01, gap 0.0000%

Gurobi 9.1.1 (linux64) logging started Wed Dec  1 09:53:47 2021

Changed value of parameter LogFile to /home/aniket/python_scripts/Plasmids-Optimization/exp/2021-06-14__iterative_MILP_edge_novelty/output/sample_68/1.1.1/nplasmids_1/MILP/m.log
   Prev:   Default: 
Changed value of parameter TimeLimit to 240.0
   Prev: inf  Min: 0.0  Max: inf  Default: inf
Changed value of parameter MIPGap to 0.05
   Prev: 0.0001  Min: 0.0  Max: inf  Default: 0.0001
Gurobi Optimizer version 9.1.1 build v9.1.1rc0 (linux64)
Thread count: 2 physical cores, 4 logical processors, using up to 4 threads
Optimize a model with 18216 rows, 6122 columns and 48735 nonzeros
Model fingerprint: 0x8d2320eb
Variable types: 1606 continuous, 4516 integer (4195 binary)
Coefficient statistics:
  Matrix range     [1e-02, 7e+05]
  Objective range  [8e-04, 1e+00]
  Bounds range     [1e+00, 1e+00]
  RHS range        [8e-01, 2e+05]
Presolve removed 15710 rows and 3079 columns
Presolve time: 0.09s
Presolved: 2506 rows, 3043 columns, 14966 nonzeros
Variable types: 607 continuous, 2436 integer (2436 binary)
Found heuristic solution: objective -0.0741615

Root relaxation: objective -1.112423e-01, 1725 iterations, 0.09 seconds

    Nodes    |    Current Node    |     Objective Bounds      |     Work
 Expl Unexpl |  Obj  Depth IntInf | Incumbent    BestBd   Gap | It/Node Time

     0     0 infeasible    0        -0.07416   -0.07416  0.00%     -    0s

Explored 0 nodes (6144 simplex iterations) in 0.35 seconds
Thread count was 4 (of 4 available processors)

Solution count 1: -0.0741615 

Optimal solution found (tolerance 5.00e-02)
Best objective -7.416150290154e-02, best bound -7.416150290154e-02, gap 0.0000%

Gurobi 9.1.1 (linux64) logging started Wed Dec  1 09:53:47 2021

Changed value of parameter LogFile to /home/aniket/python_scripts/Plasmids-Optimization/exp/2021-06-14__iterative_MILP_edge_novelty/output/sample_68/1.1.1/nplasmids_1/MILP/m.log
   Prev:   Default: 
Changed value of parameter TimeLimit to 240.0
   Prev: inf  Min: 0.0  Max: inf  Default: inf
Changed value of parameter MIPGap to 0.05
   Prev: 0.0001  Min: 0.0  Max: inf  Default: 0.0001
Gurobi Optimizer version 9.1.1 build v9.1.1rc0 (linux64)
Thread count: 2 physical cores, 4 logical processors, using up to 4 threads
Optimize a model with 18163 rows, 6104 columns and 48596 nonzeros
Model fingerprint: 0xbe895d0e
Variable types: 1601 continuous, 4503 integer (4183 binary)
Coefficient statistics:
  Matrix range     [1e-02, 7e+05]
  Objective range  [8e-04, 1e+00]
  Bounds range     [1e+00, 1e+00]
  RHS range        [8e-01, 2e+05]
Presolve removed 15672 rows and 3072 columns
Presolve time: 0.09s
Presolved: 2491 rows, 3032 columns, 14937 nonzeros
Variable types: 604 continuous, 2428 integer (2428 binary)
Found heuristic solution: objective -0.0741615

Explored 0 nodes (0 simplex iterations) in 0.11 seconds
Thread count was 4 (of 4 available processors)

Solution count 1: -0.0741615 

Optimal solution found (tolerance 5.00e-02)
Best objective -7.416150290154e-02, best bound -7.416150290154e-02, gap 0.0000%

Gurobi 9.1.1 (linux64) logging started Wed Dec  1 09:53:48 2021

Changed value of parameter LogFile to /home/aniket/python_scripts/Plasmids-Optimization/exp/2021-06-14__iterative_MILP_edge_novelty/output/sample_68/1.1.1/nplasmids_1/MILP/m.log
   Prev:   Default: 
Changed value of parameter TimeLimit to 240.0
   Prev: inf  Min: 0.0  Max: inf  Default: inf
Changed value of parameter MIPGap to 0.05
   Prev: 0.0001  Min: 0.0  Max: inf  Default: 0.0001
Gurobi Optimizer version 9.1.1 build v9.1.1rc0 (linux64)
Thread count: 2 physical cores, 4 logical processors, using up to 4 threads
Optimize a model with 18110 rows, 6086 columns and 48457 nonzeros
Model fingerprint: 0x7b80c04c
Variable types: 1596 continuous, 4490 integer (4171 binary)
Coefficient statistics:
  Matrix range     [1e-02, 7e+05]
  Objective range  [8e-04, 1e+00]
  Bounds range     [1e+00, 1e+00]
  RHS range        [8e-01, 2e+05]
Presolve removed 6836 rows and 976 columns
Presolve time: 0.01s

Explored 0 nodes (0 simplex iterations) in 0.01 seconds
Thread count was 1 (of 4 available processors)

Solution count 0

Model is infeasible
Best objective -, best bound -, gap -

Computing Irreducible Inconsistent Subsystem (IIS)...

           Constraints          |            Bounds           |  Runtime
      Min       Max     Guess   |   Min       Max     Guess   |
--------------------------------------------------------------------------
        0     14522         -         0      1915         -           0s
      640       640         -         0         0         -           3s

IIS computed: 640 constraints, 0 bounds
IIS runtime: 2.72 seconds
Warning: linear constraint 0 and linear constraint 1 have the same name "counted_length"
